# RHF/6-31G(d) Freq Pop=full Opt

Benzen21

0 1
C        1.2016810000      0.3925400000     -0.0654360000                 
C        0.3261360000      0.5145560000     -1.7171510000                 
C       -1.5466010000      0.5931780000     -1.7782590000                 
C       -2.5348880000      0.5494680000     -0.1884670000                 
C       -1.6557910000      0.4277120000      1.4555860000                 
C        0.2085270000      0.3493880000      1.5174730000                 
H       -0.6431300000      1.0452900000     -0.1023190000                 
H       -0.6893590000     -0.1027310000     -0.1626210000                 
H        2.2809920000      0.3465040000     -0.0164380000                 
H        0.9048330000      0.5393040000     -2.6319480000                 
H       -2.0625750000      0.6638000000     -2.7271990000                 
H       -3.6145720000      0.5941180000     -0.2107910000                 
H       -2.2241290000      0.4023970000      2.3732440000                 
H        0.7087820000      0.2791060000      2.4720000000                 

