# RHF/6-31G(d) Pop=full Opt Freq

Benzen1

0 1
C        1.1348787371      0.4761038309     -0.0606410146                 
C        0.4691989422      0.4572031476     -1.2910006323                 
C       -0.9275207434      0.5264889083     -1.3317812992                 
C       -1.6585445434      0.6146607960     -0.1422012601                 
C       -0.9928594357      0.6336754406      1.0881539530                 
C        0.4038618449      0.5644035108      1.1289340886                 
H       -0.4074867802     -2.4440846152      0.3899349093                 
H       -0.4213346682     -2.4713532322     -0.3173235434                 
H        2.2153859381      0.4222654162     -0.0290835676                 
H        1.0347182650      0.3887265749     -2.2112649029                 
H       -1.4425155214      0.5116100734     -2.2835939710                 
H       -2.7390764655      0.6680128393     -0.1737397495                 
H       -1.5584015803      0.7017109484      2.0084359824                 
H        0.9188347861      0.5788468301      2.0807643363                 

