# RHF/6-31G(d) Freq Pop=full Opt

Benzen20

0 1
C        0.6820980000      0.1424780000     -1.2193950000                 
C       -0.7167020000      0.1638500000     -1.2325740000                 
C       -1.4281990000      0.1292130000     -0.0284710000                 
C       -0.7408860000      0.0731960000      1.1887950000                 
C        0.6579120000      0.0516970000      1.2019680000                 
H        0.3043660000      3.1027220000      0.2819250000                 
H       -0.2921620000      3.1290040000     -0.0983550000                 
H        2.4515430000      0.0699760000      0.0080640000                 
H        1.2325250000      0.1695200000     -2.1508930000                 
H       -1.2484090000      0.2074550000     -2.1742600000                 
H       -2.5103260000      0.1460220000     -0.0386510000                 
H       -1.2913040000      0.0466400000      2.1203130000                 
H        1.1896260000      0.0085280000      2.1436710000                 

